
Gurobi 10.0.1 (linux64) logging started Sun Nov 26 15:51:16 2023

Set parameter LogFile to value "ArtificialInstance/ExperimentV2/S4T4K1/BaSp/gurobi91.txt"
Gurobi Optimizer version 10.0.1 build v10.0.1rc0 (linux64)

CPU model: AMD EPYC 7H12 64-Core Processor, instruction set [SSE2|AVX|AVX2]
Thread count: 128 physical cores, 128 logical processors, using up to 32 threads

Academic license 656792 - for non-commercial use only - registered to b.___@student.vu.nl
Optimize a model with 1895 rows, 2800 columns and 9040 nonzeros
Model fingerprint: 0x9389ebef
Variable types: 0 continuous, 2800 integer (2800 binary)
Coefficient statistics:
  Matrix range     [1e+00, 1e+00]
  Objective range  [9e-01, 2e+01]
  Bounds range     [1e+00, 1e+00]
  RHS range        [1e+00, 1e+00]
Found heuristic solution: objective 641.0328958
Presolve time: 0.01s
Presolved: 1895 rows, 2800 columns, 9040 nonzeros
Variable types: 0 continuous, 2800 integer (2800 binary)

Root relaxation: objective 4.175564e+01, 1570 iterations, 0.04 seconds (0.03 work units)

    Nodes    |    Current Node    |     Objective Bounds      |     Work
 Expl Unexpl |  Obj  Depth IntInf | Incumbent    BestBd   Gap | It/Node Time

     0     0   41.75564    0  342  641.03290   41.75564  93.5%     -    0s
H    0     0                     212.8526548   41.75564  80.4%     -    0s
H    0     0                     201.7161385   41.75564  79.3%     -    0s
H    0     0                      76.0820064   41.75564  45.1%     -    0s
     0     0   44.16965    0  404   76.08201   44.16965  41.9%     -    0s
H    0     0                      63.8471034   44.16965  30.8%     -    0s
H    0     0                      60.5810923   46.93771  22.5%     -    0s
     0     0   46.93771    0  226   60.58109   46.93771  22.5%     -    0s
H    0     0                      54.1920858   46.93771  13.4%     -    0s
     0     0   47.60800    0  419   54.19209   47.60800  12.1%     -    0s
H    0     0                      52.2364885   47.60800  8.86%     -    0s
     0     0   47.61175    0  416   52.23649   47.61175  8.85%     -    0s
     0     0   48.87930    0  522   52.23649   48.87930  6.43%     -    0s
     0     0   49.10722    0  545   52.23649   49.10722  5.99%     -    0s
     0     0   49.10722    0  550   52.23649   49.10722  5.99%     -    0s
     0     0   49.47305    0  325   52.23649   49.47305  5.29%     -    0s
     0     0   49.47305    0  335   52.23649   49.47305  5.29%     -    0s
     0     0   49.47305    0  269   52.23649   49.47305  5.29%     -    0s
     0     0   49.47305    0  381   52.23649   49.47305  5.29%     -    0s
     0     0   49.47305    0  320   52.23649   49.47305  5.29%     -    0s
     0     0   49.49606    0  314   52.23649   49.49606  5.25%     -    0s
     0     0   49.61692    0  508   52.23649   49.61692  5.01%     -    1s
     0     0   49.61714    0  548   52.23649   49.61714  5.01%     -    1s
     0     0   50.09144    0  562   52.23649   50.09144  4.11%     -    1s
     0     0   50.35096    0  561   52.23649   50.35096  3.61%     -    1s
     0     0   50.37490    0  572   52.23649   50.37490  3.56%     -    1s
     0     0   52.23649    0  488   52.23649   52.23649  0.00%     -    1s

Cutting planes:
  Gomory: 8
  Clique: 5
  MIR: 1
  Zero half: 115
  RLT: 50

Explored 1 nodes (9003 simplex iterations) in 1.50 seconds (0.58 work units)
Thread count was 32 (of 128 available processors)

Solution count 8: 52.2365 54.1921 60.5811 ... 641.033

Optimal solution found (tolerance 1.00e-04)
Best objective 5.223648853174e+01, best bound 5.223648853174e+01, gap 0.0000%
